Academic license - for non-commercial use only
Warning: variable name "0 0 0" has a space
Warning: constraint name "IFP = Point(0,0) in polygon: 0" has a space
Warning: to let Gurobi read it back, use rlp format
Optimize a model with 4392510 rows, 6889 columns and 8788624 nonzeros
Variable types: 0 continuous, 6889 integer (6888 binary)
Coefficient statistics:
  Matrix range     [1e+00, 4e+01]
  Objective range  [1e+00, 1e+00]
  Bounds range     [1e+00, 1e+00]
  RHS range        [1e+00, 1e+00]
Presolve removed 4218754 rows and 3268 columns (presolve time = 5s) ...
Presolve removed 4219630 rows and 3268 columns (presolve time = 10s) ...
Presolve removed 4219887 rows and 3268 columns (presolve time = 15s) ...
Presolve removed 4220029 rows and 3268 columns (presolve time = 20s) ...
Presolve removed 4220235 rows and 3268 columns (presolve time = 25s) ...
Presolve removed 4220379 rows and 3268 columns (presolve time = 30s) ...
Presolve removed 4220574 rows and 3268 columns (presolve time = 35s) ...
Presolve removed 4220673 rows and 3268 columns (presolve time = 40s) ...
Presolve removed 4220864 rows and 3268 columns (presolve time = 45s) ...
Presolve removed 4220993 rows and 3268 columns (presolve time = 50s) ...
Presolve removed 4220993 rows and 3268 columns (presolve time = 56s) ...
Presolve removed 4221475 rows and 3268 columns (presolve time = 62s) ...
Presolve removed 4221475 rows and 3268 columns (presolve time = 65s) ...
Presolve removed 4221475 rows and 3268 columns
Presolve time: 65.37s
Presolved: 171035 rows, 3621 columns, 1377016 nonzeros
Variable types: 0 continuous, 3621 integer (3620 binary)
Found heuristic solution: objective 37.0000000
Found heuristic solution: objective 36.0000000

Root simplex log...

Iteration    Objective       Primal Inf.    Dual Inf.      Time
       0   -0.0000000e+00   0.000000e+00   3.870000e+02     67s
   20904    8.0671543e-02   0.000000e+00   0.000000e+00     69s
   20904    8.0671543e-02   0.000000e+00   0.000000e+00     69s
   20904    8.0671543e-02   0.000000e+00   0.000000e+00     69s

Root relaxation: objective 8.067154e-02, 20904 iterations, 2.38 seconds
Total elapsed time = 71.77s

    Nodes    |    Current Node    |     Objective Bounds      |     Work
 Expl Unexpl |  Obj  Depth IntInf | Incumbent    BestBd   Gap | It/Node Time

     0     0    0.08067    0 1879   36.00000    0.08067   100%     -   75s
H    0     0                      35.0000000    0.08067   100%     -   75s
     0     0    1.00000    0  237   35.00000    1.00000  97.1%     -   82s
H    0     0                      34.0000000    1.00000  97.1%     -   82s
     0     0    1.00000    0  208   34.00000    1.00000  97.1%     -   85s
     0     0    1.00000    0  118   34.00000    1.00000  97.1%     -   89s
     0     0    1.00000    0  110   34.00000    1.00000  97.1%     -   92s
     0     0    1.00000    0  148   34.00000    1.00000  97.1%     -  103s
H    0     0                      33.0000000    1.00000  97.0%     -  103s
H    0     0                      32.0000000    1.00000  96.9%     -  105s
     0     0    1.00000    0  151   32.00000    1.00000  96.9%     -  106s
     0     0    1.00764    0  370   32.00000    1.00764  96.9%     -  112s
     0     0    1.09862    0 1296   32.00000    1.09862  96.6%     -  179s
H    0     0                      31.0000000    1.09862  96.5%     -  179s
     0     0    2.00000    0  164   31.00000    2.00000  93.5%     -  186s
     0     0    2.00000    0  117   31.00000    2.00000  93.5%     -  194s
     0     0    2.00000    0  118   31.00000    2.00000  93.5%     -  197s
     0     0    2.00000    0  137   31.00000    2.00000  93.5%     -  202s
     0     0    2.00000    0  137   31.00000    2.00000  93.5%     -  206s
     0     0    2.00000    0  153   31.00000    2.00000  93.5%     -  213s
     0     0    2.00000    0  164   31.00000    2.00000  93.5%     -  219s
     0     0    2.00513    0  477   31.00000    2.00513  93.5%     -  228s
     0     0    2.02236    0  440   31.00000    2.02236  93.5%     -  229s
     0     0    2.15279    0  441   31.00000    2.15279  93.1%     -  233s
     0     0    2.19117    0  432   31.00000    2.19117  92.9%     -  237s
     0     0    2.19553    0  420   31.00000    2.19553  92.9%     -  237s
     0     0    2.19576    0  426   31.00000    2.19576  92.9%     -  238s
     0     0    2.19576    0  422   31.00000    2.19576  92.9%     -  238s
     0     0    2.23436    0  372   31.00000    2.23436  92.8%     -  244s
     0     0    2.25025    0  361   31.00000    2.25025  92.7%     -  244s
     0     0    2.25040    0  354   31.00000    2.25040  92.7%     -  245s
     0     0    2.25444    0  355   31.00000    2.25444  92.7%     -  246s
     0     0    2.25544    0  357   31.00000    2.25544  92.7%     -  246s
     0     0    2.25638    0  361   31.00000    2.25638  92.7%     -  246s
     0     0    2.25749    0  375   31.00000    2.25749  92.7%     -  246s
     0     0    2.25851    0  375   31.00000    2.25851  92.7%     -  247s
     0     0    2.25897    0  379   31.00000    2.25897  92.7%     -  247s
     0     0    2.25904    0  382   31.00000    2.25904  92.7%     -  247s
     0     0    2.32150    0  312   31.00000    2.32150  92.5%     -  252s
     0     0    2.33340    0  302   31.00000    2.33340  92.5%     -  255s
     0     0    2.33833    0  303   31.00000    2.33833  92.5%     -  255s
     0     0    2.34555    0  299   31.00000    2.34555  92.4%     -  255s
     0     0    2.34953    0  295   31.00000    2.34953  92.4%     -  256s
     0     0    2.35003    0  302   31.00000    2.35003  92.4%     -  256s
     0     0    2.35016    0  307   31.00000    2.35016  92.4%     -  256s
     0     0    2.37987    0  286   31.00000    2.37987  92.3%     -  259s
     0     0    2.39411    0  274   31.00000    2.39411  92.3%     -  260s
     0     0    2.40312    0  279   31.00000    2.40312  92.2%     -  260s
     0     0    2.41222    0  274   31.00000    2.41222  92.2%     -  261s
     0     0    2.41905    0  284   31.00000    2.41905  92.2%     -  261s
     0     0    2.42037    0  283   31.00000    2.42037  92.2%     -  261s
     0     0    2.42085    0  288   31.00000    2.42085  92.2%     -  262s
     0     0    2.42152    0  290   31.00000    2.42152  92.2%     -  262s
     0     0    2.42201    0  288   31.00000    2.42201  92.2%     -  262s
     0     0    2.42215    0  294   31.00000    2.42215  92.2%     -  262s
     0     0    2.45110    0  274   31.00000    2.45110  92.1%     -  264s
     0     0    2.45614    0  271   31.00000    2.45614  92.1%     -  267s
     0     0    2.45666    0  274   31.00000    2.45666  92.1%     -  267s
     0     0    2.45820    0  276   31.00000    2.45820  92.1%     -  267s
     0     0    2.45972    0  279   31.00000    2.45972  92.1%     -  268s
     0     0    2.46093    0  280   31.00000    2.46093  92.1%     -  268s
     0     0    2.46105    0  281   31.00000    2.46105  92.1%     -  268s
     0     0    2.46527    0  270   31.00000    2.46527  92.0%     -  269s
     0     0    2.46564    0  266   31.00000    2.46564  92.0%     -  270s
     0     0    2.46974    0  256   31.00000    2.46974  92.0%     -  270s
     0     0    2.47276    0  257   31.00000    2.47276  92.0%     -  270s
     0     0    2.47292    0  258   31.00000    2.47292  92.0%     -  271s
     0     0    2.47369    0  263   31.00000    2.47369  92.0%     -  272s
     0     0    2.47405    0  267   31.00000    2.47405  92.0%     -  272s
     0     0    2.47638    0  261   31.00000    2.47638  92.0%     -  272s
     0     0    2.47650    0  264   31.00000    2.47650  92.0%     -  273s
     0     0    2.47808    0  265   31.00000    2.47808  92.0%     -  274s
     0     0    2.48064    0  263   31.00000    2.48064  92.0%     -  274s
     0     0    2.48389    0  280   31.00000    2.48389  92.0%     -  275s
     0     0    2.48482    0  282   31.00000    2.48482  92.0%     -  275s
     0     0    2.48495    0  285   31.00000    2.48495  92.0%     -  275s
     0     0    2.48909    0  280   31.00000    2.48909  92.0%     -  276s
     0     0    2.48971    0  280   31.00000    2.48971  92.0%     -  277s
     0     0    2.49008    0  280   31.00000    2.49008  92.0%     -  277s
     0     0    2.49075    0  283   31.00000    2.49075  92.0%     -  277s
     0     0    2.49241    0  279   31.00000    2.49241  92.0%     -  277s
     0     0    2.49257    0  291   31.00000    2.49257  92.0%     -  277s
     0     0    2.49806    0  297   31.00000    2.49806  91.9%     -  278s
     0     0    2.49943    0  288   31.00000    2.49943  91.9%     -  279s
     0     0    2.49966    0  288   31.00000    2.49966  91.9%     -  279s
     0     0    2.50011    0  290   31.00000    2.50011  91.9%     -  279s
     0     0    2.50023    0  286   31.00000    2.50023  91.9%     -  279s
     0     0    2.50451    0  277   31.00000    2.50451  91.9%     -  281s
     0     0    2.51002    0  268   31.00000    2.51002  91.9%     -  281s
     0     0    2.51064    0  273   31.00000    2.51064  91.9%     -  281s
     0     0    2.51087    0  275   31.00000    2.51087  91.9%     -  282s
     0     0    2.51101    0  287   31.00000    2.51101  91.9%     -  282s
     0     0    2.51929    0  269   31.00000    2.51929  91.9%     -  283s
     0     0    2.52314    0  270   31.00000    2.52314  91.9%     -  287s
     0     0    2.52384    0  272   31.00000    2.52384  91.9%     -  287s
     0     0    2.52459    0  272   31.00000    2.52459  91.9%     -  287s
     0     0    2.52497    0  274   31.00000    2.52497  91.9%     -  287s
     0     0    2.52503    0  285   31.00000    2.52503  91.9%     -  288s
     0     0    2.52752    0  282   31.00000    2.52752  91.8%     -  289s
     0     0    2.52776    0  286   31.00000    2.52776  91.8%     -  289s
     0     0    2.52811    0  282   31.00000    2.52811  91.8%     -  289s
     0     0    2.52821    0  277   31.00000    2.52821  91.8%     -  290s
     0     0    2.53158    0  275   31.00000    2.53158  91.8%     -  291s
     0     0    2.53311    0  276   31.00000    2.53311  91.8%     -  291s
     0     0    2.53320    0  275   31.00000    2.53320  91.8%     -  292s
     0     0    2.53898    0  268   31.00000    2.53898  91.8%     -  293s
     0     0    2.53970    0  273   31.00000    2.53970  91.8%     -  293s
     0     0    2.54003    0  275   31.00000    2.54003  91.8%     -  294s
     0     0    2.54006    0  281   31.00000    2.54006  91.8%     -  294s
     0     0    2.55485    0  269   31.00000    2.55485  91.8%     -  295s
     0     0    2.55535    0  274   31.00000    2.55535  91.8%     -  296s
     0     0    2.55546    0  282   31.00000    2.55546  91.8%     -  296s
     0     0    2.57311    0  270   31.00000    2.57311  91.7%     -  297s
     0     0    2.57465    0  260   31.00000    2.57465  91.7%     -  298s
     0     0    2.57498    0  261   31.00000    2.57498  91.7%     -  298s
     0     0    2.57591    0  265   31.00000    2.57591  91.7%     -  298s
     0     0    2.57593    0  269   31.00000    2.57593  91.7%     -  299s
     0     0    2.58121    0  254   31.00000    2.58121  91.7%     -  300s
     0     0    2.58203    0  261   31.00000    2.58203  91.7%     -  300s
     0     0    2.58243    0  262   31.00000    2.58243  91.7%     -  301s
     0     0    2.58244    0  266   31.00000    2.58244  91.7%     -  301s
     0     0    2.61760    0  240   31.00000    2.61760  91.6%     -  303s
     0     0    2.62613    0  240   31.00000    2.62613  91.5%     -  303s
     0     0    2.62908    0  236   31.00000    2.62908  91.5%     -  304s
     0     0    2.62943    0  242   31.00000    2.62943  91.5%     -  304s
     0     0    2.62980    0  248   31.00000    2.62980  91.5%     -  304s
     0     0    2.62986    0  255   31.00000    2.62986  91.5%     -  304s
     0     0    2.63463    0  254   31.00000    2.63463  91.5%     -  305s
     0     0    2.63501    0  255   31.00000    2.63501  91.5%     -  309s
     0     0    2.63563    0  256   31.00000    2.63563  91.5%     -  309s
     0     0    2.63573    0  260   31.00000    2.63573  91.5%     -  309s
     0     0    2.65365    0  240   31.00000    2.65365  91.4%     -  311s
     0     0    2.65799    0  246   31.00000    2.65799  91.4%     -  311s
     0     0    2.65952    0  248   31.00000    2.65952  91.4%     -  312s
     0     0    2.65987    0  250   31.00000    2.65987  91.4%     -  312s
     0     0    2.66008    0  256   31.00000    2.66008  91.4%     -  312s
     0     0    2.66008    0  253   31.00000    2.66008  91.4%     -  312s
     0     0    2.66813    0  255   31.00000    2.66813  91.4%     -  314s
     0     0    2.66828    0  258   31.00000    2.66828  91.4%     -  314s
     0     0    2.66886    0  257   31.00000    2.66886  91.4%     -  315s
     0     0    2.66899    0  259   31.00000    2.66899  91.4%     -  316s
     0     0    2.67681    0  248   31.00000    2.67681  91.4%     -  317s
     0     0    2.67686    0  251   31.00000    2.67686  91.4%     -  317s
     0     0    2.67688    0  251   31.00000    2.67688  91.4%     -  318s
     0     0    2.67795    0  254   31.00000    2.67795  91.4%     -  319s
     0     0    2.67857    0  250   31.00000    2.67857  91.4%     -  319s
     0     0    2.67887    0  251   31.00000    2.67887  91.4%     -  319s
     0     0    2.67920    0  252   31.00000    2.67920  91.4%     -  320s
     0     0    2.67928    0  254   31.00000    2.67928  91.4%     -  320s
     0     0    2.70009    0  229   31.00000    2.70009  91.3%     -  322s
     0     0    2.70508    0  232   31.00000    2.70508  91.3%     -  322s
     0     0    2.70539    0  240   31.00000    2.70539  91.3%     -  322s
     0     0    2.70546    0  239   31.00000    2.70546  91.3%     -  323s
     0     0    2.70880    0  228   31.00000    2.70880  91.3%     -  324s
     0     0    2.71244    0  230   31.00000    2.71244  91.3%     -  325s
     0     0    2.71338    0  231   31.00000    2.71338  91.2%     -  325s
     0     0    2.71382    0  233   31.00000    2.71382  91.2%     -  325s
     0     0    2.71391    0  232   31.00000    2.71391  91.2%     -  326s
     0     0    2.72022    0  217   31.00000    2.72022  91.2%     -  327s
     0     0    2.72192    0  225   31.00000    2.72192  91.2%     -  328s
     0     0    2.72253    0  226   31.00000    2.72253  91.2%     -  328s
     0     0    2.72302    0  228   31.00000    2.72302  91.2%     -  328s
     0     0    2.72334    0  240   31.00000    2.72334  91.2%     -  328s
     0     0    2.72357    0  245   31.00000    2.72357  91.2%     -  329s
     0     0    2.72380    0  247   31.00000    2.72380  91.2%     -  329s
     0     0    2.72424    0  244   31.00000    2.72424  91.2%     -  329s
     0     0    2.72448    0  241   31.00000    2.72448  91.2%     -  329s
     0     0    2.72456    0  242   31.00000    2.72456  91.2%     -  330s
     0     0    2.72513    0  237   31.00000    2.72513  91.2%     -  331s
     0     0    2.72576    0  247   31.00000    2.72576  91.2%     -  334s
     0     0    2.72624    0  246   31.00000    2.72624  91.2%     -  335s
     0     0    2.72639    0  249   31.00000    2.72639  91.2%     -  335s
     0     0    2.72886    0  237   31.00000    2.72886  91.2%     -  337s
     0     0    2.72946    0  236   31.00000    2.72946  91.2%     -  337s
     0     0    2.72959    0  245   31.00000    2.72959  91.2%     -  337s
     0     0    2.73350    0  249   31.00000    2.73350  91.2%     -  339s
     0     0    2.73365    0  248   31.00000    2.73365  91.2%     -  340s
     0     0    2.73624    0  239   31.00000    2.73624  91.2%     -  341s
     0     0    2.73666    0  240   31.00000    2.73666  91.2%     -  342s
     0     0    2.73697    0  247   31.00000    2.73697  91.2%     -  342s
     0     0    2.73723    0  250   31.00000    2.73723  91.2%     -  342s
     0     0    2.73735    0  251   31.00000    2.73735  91.2%     -  343s
     0     0    2.73969    0  237   31.00000    2.73969  91.2%     -  344s
     0     0    2.74126    0  247   31.00000    2.74126  91.2%     -  345s
     0     0    2.74160    0  245   31.00000    2.74160  91.2%     -  345s
     0     0    2.74160    0  248   31.00000    2.74160  91.2%     -  345s
     0     0    2.74166    0  246   31.00000    2.74166  91.2%     -  347s
     0     0    2.74171    0  247   31.00000    2.74171  91.2%     -  347s
     0     0    2.74900    0  240   31.00000    2.74900  91.1%     -  349s
     0     0    2.74970    0  240   31.00000    2.74970  91.1%     -  349s
     0     0    2.75023    0  242   31.00000    2.75023  91.1%     -  350s
     0     0    2.75043    0  240   31.00000    2.75043  91.1%     -  350s
     0     0    2.75200    0  234   31.00000    2.75200  91.1%     -  352s
     0     0    2.75290    0  230   31.00000    2.75290  91.1%     -  355s
     0     0    2.75304    0  240   31.00000    2.75304  91.1%     -  355s
     0     0    2.75311    0  240   31.00000    2.75311  91.1%     -  357s
     0     0    3.00000    0  131   31.00000    3.00000  90.3%     -  390s
     0     0    3.00000    0  119   31.00000    3.00000  90.3%     -  398s
     0     2    3.00000    0   95   31.00000    3.00000  90.3%     -  420s
    10    10    3.00000    4   97   31.00000    3.00000  90.3%   240  425s
    26    17 infeasible    6        31.00000    3.00000  90.3%   187  433s
    32    19    4.00000    7   71   31.00000    3.00000  90.3%   169  435s
    65    44    4.00000   13   67   31.00000    3.00000  90.3%   103  442s
    90    57    6.63804   16   42   31.00000    3.00000  90.3%  84.2  445s
   163    94    4.00000   22   68   31.00000    3.00000  90.3%  63.1  450s
   191   116    4.00000   28   67   31.00000    3.00000  90.3%  63.1  459s
   195   118    4.00000   29   68   31.00000    3.00000  90.3%  62.5  460s
   264   172    7.38051   38   43   31.00000    3.00000  90.3%  58.2  465s
   334   210    9.00000   53   28   31.00000    3.00000  90.3%  53.7  470s
   451   252    4.00150    6   78   31.00000    3.00000  90.3%  46.3  475s
   577   248    5.00000   10   57   31.00000    3.00000  90.3%  41.1  481s
   606   256    6.00000   13   57   31.00000    3.00000  90.3%  42.0  485s
   695   268    6.30345   20   52   31.00000    3.00000  90.3%  42.9  493s
   736   295    8.00000   26   41   31.00000    3.00000  90.3%  43.7  496s
   780   296   12.00000   36   22   31.00000    3.00000  90.3%  42.9  500s
   845   317    3.23812   10  146   31.00000    3.00000  90.3%  45.3  506s
   897   321 infeasible   12        31.00000    3.05097  90.2%  44.4  511s
   974   339    4.00000   11  116   31.00000    4.00000  87.1%  45.5  515s
  1075   347    5.00000   14   58   31.00000    4.00000  87.1%  46.5  522s
  1137   359   20.43038   29   11   31.00000    4.00000  87.1%  46.1  527s
  1152   367    4.00000   13  117   31.00000    4.00000  87.1%  49.5  532s
  1161   370    5.68508   14   62   31.00000    4.00000  87.1%  52.7  535s
  1199   389    5.72001   15   55   31.00000    4.00000  87.1%  52.5  540s
  1223   397    7.00000   21   46   31.00000    4.00000  87.1%  54.7  545s
  1267   412    4.65543   14  108   31.00000    4.00000  87.1%  60.2  554s
  1283   416    4.66002   15  109   31.00000    4.00000  87.1%  61.4  560s
  1328   433 infeasible   17        31.00000    4.00000  87.1%  62.5  565s
  1366   459    6.00000   18   72   31.00000    4.00000  87.1%  64.2  570s
  1412   479    6.00000   21   79   31.00000    4.00000  87.1%  65.2  577s
  1492   543    6.00000   26   85   31.00000    4.00000  87.1%  65.3  582s
  1525   559 infeasible   28        31.00000    4.00000  87.1%  66.1  586s
  1553   566    7.00000   32   67   31.00000    4.00000  87.1%  69.6  591s
  1582   577    7.00000   36   63   31.00000    4.00000  87.1%  71.3  597s
  1661   623    7.00000   41   82   31.00000    4.00000  87.1%  71.5  603s
  1714   646   17.00000   44   27   31.00000    5.00000  83.9%  72.2  610s
  1784   684    6.23797   20   83   31.00000    5.00000  83.9%  74.5  615s
  1862   722    7.00000   27   62   31.00000    5.00000  83.9%  75.7  621s
  1963   774    9.31460   36   57   31.00000    5.00000  83.9%  76.2  627s
  2034   796   19.00000   52   28   31.00000    5.10576  83.5%  78.4  633s
  2124   859   30.00000   12  370   31.00000    5.10576  83.5%  79.4  850s
  2126   860   30.00000   38  119   31.00000    5.10576  83.5%  79.3  891s
  2127   861   30.00000   21  133   31.00000    5.10576  83.5%  79.3  898s
  2128   862   30.00000   37  182   31.00000    5.10576  83.5%  79.2  913s
  2129   862   30.00000   17  117   31.00000    6.00000  80.6%  79.2 1036s
  2130   863   27.00000   37   55   31.00000    6.00000  80.6%  79.2 1043s
  2131   864   30.00000   15   62   31.00000    6.00000  80.6%  79.1 1054s
  2132   864   30.00000   19  120   31.00000    6.06539  80.4%  79.1 1066s
  2133   865   30.00000   13  138   31.00000    6.51618  79.0%  79.1 1074s
  2134   866   29.00000   35  142   31.00000    6.73694  78.3%  79.0 1080s
  2136   867   28.00000   49  146   31.00000    7.13169  77.0%  78.9 1090s
  2138   868   30.00000   78  134   31.00000    7.43056  76.0%  78.9 1096s
  2140   870   27.00000   38  126   31.00000    7.74176  75.0%  78.8 1101s
  2142   871   29.00000   28  134   31.00000    8.10860  73.8%  78.7 1105s
  2144   872   28.00000   40  139   31.00000    8.30380  73.2%  78.6 1110s
  2148   875   29.00000   21  142   31.00000    8.59205  72.3%  78.5 1115s
  2154   879   26.00000   62  140   31.00000    8.62058  72.2%  78.3 1120s
  2159   882   20.00000   38  138   31.00000    8.62400  72.2%  78.1 1193s
  2160   883   28.00000   50   96   31.00000   11.00000  64.5%  78.1 1512s
  2161   884   30.00000   25  110   31.00000   11.23349  63.8%  78.0 1820s
  2162   884   30.00000   37  102   31.00000   12.34964  60.2%  78.0 1869s
  2163   885   30.00000   63   76   31.00000   13.14994  57.6%  78.0 1877s
  2164   886   30.00000   39   99   31.00000   13.43629  56.7%  77.9 1881s
  2166   887   27.00000   49   90   31.00000   13.73682  55.7%  77.9 1888s
  2167   888   30.00000   62   98   31.00000   14.21827  54.1%  77.8 1893s
  2168   888   30.00000    9   79   31.00000   14.29502  53.9%  77.8 1896s
  2169   889   18.00000   24   97   31.00000   14.41072  53.5%  77.7 1900s
  2171   890   30.00000   64  101   31.00000   14.56249  53.0%  77.7 1906s
  2173   892   30.00000   64  119   31.00000   14.60117  52.9%  77.6 1910s
  2174   892   30.00000   38  114   31.00000   14.60221  52.9%  77.6 2001s
  2176   894   30.00000   30   95   31.00000   15.72514  49.3%  77.5 2006s
  2177   894   27.00000   36   52   31.00000   16.19704  47.8%  77.5 2011s
  2178   895   30.00000   27   35   31.00000   17.03874  45.0%  77.4 2015s
  2181   897   30.00000   41   38   31.00000   17.09578  44.9%  77.3 2063s

Cutting planes:
  Implied bound: 3
  Clique: 105
  MIR: 14
  StrongCG: 1
  Flow cover: 12
  Zero half: 6

Explored 2181 nodes (339083 simplex iterations) in 2063.41 seconds
Thread count was 8 (of 8 available processors)

Solution count 7: 31 32 33 ... 37

Optimal solution found (tolerance 1.00e-04)
Best objective 3.100000000000e+01, best bound 3.100000000000e+01, gap 0.0000%
Objective Function: 31.0
Time: 2894.894788980484
